
Gurobi 6.5.2 (win64) logging started 07/22/16 22:00:08


Gurobi 6.5.2 (win64) logging started 07/22/16 22:00:08

Optimize a model with 2836 rows, 274 columns and 6238 nonzeros
Coefficient statistics:
  Matrix range    [1e+00, 5e+02]
  Objective range [2e+00, 5e+02]
  Bounds range    [1e+00, 1e+00]
  RHS range       [1e+00, 2e+03]
Presolve removed 2719 rows and 21 columns
Presolve time: 0.01s
Presolved: 117 rows, 253 columns, 1279 nonzeros
Variable types: 0 continuous, 253 integer (253 binary)

Root relaxation: objective 1.572000e+03, 172 iterations, 0.01 seconds

    Nodes    |    Current Node    |     Objective Bounds      |     Work
 Expl Unexpl |  Obj  Depth IntInf | Incumbent    BestBd   Gap | It/Node Time

*    0     0               0    1572.0000000 1572.00000  0.00%     -    0s

Explored 0 nodes (172 simplex iterations) in 0.02 seconds
Thread count was 8 (of 8 available processors)

Optimal solution found (tolerance 1.00e-04)
Best objective 1.572000000000e+03, best bound 1.572000000000e+03, gap 0.0%

Wrote requested result file 'H1\instance26\\Results26SG_Sol5.lp'

